SECTION Graph
Nodes 729
Edges 1395
E 1 12 44
E 1 26 5
E 1 631 1
E 1 632 1
E 2 4 1
E 2 641 1
E 3 5 1
E 3 631 1
E 3 632 1
E 3 640 11
E 4 6 1
E 4 640 1
E 5 630 1
E 5 639 11
E 6 639 1
E 7 8 1
E 7 19 1
E 7 481 52
E 7 546 3
E 8 20 1
E 8 545 2
E 8 547 3
E 9 559 1
E 10 17 52
E 10 546 6
E 10 555 1
E 10 558 5
E 11 551 6
E 11 555 2
E 12 24 5
E 12 651 1
E 12 652 1
E 13 653 11
E 13 654 1
E 14 478 3
E 14 483 1
E 14 486 1
E 14 492 6
E 15 492 5
E 15 498 1
E 16 483 6
E 16 492 1
E 17 486 6
E 17 492 1
E 17 498 5
E 18 43 5
E 18 522 1
E 18 524 1
E 18 525 2
E 19 20 1
E 19 477 52
E 19 536 3
E 20 538 3
E 20 544 2
E 21 34 52
E 21 523 5
E 21 533 1
E 21 536 6
E 22 528 5
E 22 533 2
E 22 541 6
E 23 646 1
E 23 647 1
E 23 649 11
E 24 26 44
E 24 648 1
E 24 650 1
E 25 27 1
E 25 36 5
E 25 620 1
E 25 645 44
E 26 628 1
E 26 629 1
E 27 29 1
E 27 38 5
E 27 619 1
E 28 30 1
E 28 619 11
E 28 628 1
E 28 629 1
E 29 40 5
E 29 618 1
E 30 618 11
E 30 627 1
E 31 453 1
E 31 454 1
E 31 457 1
E 31 462 5
E 32 462 6
E 32 467 1
E 32 471 1
E 32 475 3
E 33 454 5
E 33 462 1
E 33 467 6
E 34 457 5
E 34 462 1
E 34 471 6
E 35 46 44
E 35 60 5
E 35 607 1
E 35 608 1
E 36 38 1
E 36 617 1
E 36 643 44
E 37 39 1
E 37 607 1
E 37 608 1
E 37 616 11
E 38 40 1
E 38 616 1
E 39 606 1
E 39 615 11
E 40 615 1
E 41 42 1
E 41 53 1
E 41 428 52
E 41 502 3
E 42 54 1
E 42 501 2
E 42 503 3
E 43 514 1
E 43 515 1
E 43 520 2
E 44 51 52
E 44 502 6
E 44 510 1
E 44 513 5
E 45 506 6
E 45 510 2
E 45 518 5
E 46 58 5
E 46 636 1
E 46 637 1
E 47 638 11
E 47 642 1
E 47 644 1
E 48 426 3
E 48 430 1
E 48 434 1
E 48 437 6
E 49 437 5
E 49 440 1
E 49 445 1
E 49 446 1
E 50 430 6
E 50 437 1
E 50 440 5
E 51 434 6
E 51 437 1
E 51 445 5
E 52 77 5
E 52 480 1
E 52 484 1
E 52 485 2
E 53 54 1
E 53 425 52
E 53 494 3
E 54 496 3
E 54 500 2
E 55 68 52
E 55 482 5
E 55 491 1
E 55 494 6
E 56 487 5
E 56 491 2
E 56 499 6
E 57 625 1
E 57 626 1
E 57 634 11
E 58 60 44
E 58 633 1
E 58 635 1
E 59 61 1
E 59 70 5
E 59 596 1
E 59 624 44
E 60 604 1
E 60 605 1
E 61 63 1
E 61 72 5
E 61 595 1
E 62 64 1
E 62 595 11
E 62 604 1
E 62 605 1
E 63 74 5
E 63 594 1
E 64 594 11
E 64 603 1
E 65 398 1
E 65 399 1
E 65 402 1
E 65 406 5
E 66 406 6
E 66 416 1
E 66 419 1
E 66 423 3
E 67 399 5
E 67 406 1
E 67 416 6
E 68 402 5
E 68 406 1
E 68 419 6
E 69 80 44
E 69 94 5
E 69 583 1
E 69 584 1
E 70 72 1
E 70 593 1
E 70 622 44
E 71 73 1
E 71 583 1
E 71 584 1
E 71 592 11
E 72 74 1
E 72 592 1
E 73 582 1
E 73 591 11
E 74 591 1
E 75 76 1
E 75 87 1
E 75 365 52
E 75 452 3
E 76 88 1
E 76 451 2
E 76 455 3
E 77 468 1
E 77 469 1
E 77 474 2
E 78 85 52
E 78 452 6
E 78 463 1
E 78 466 5
E 79 458 6
E 79 463 2
E 79 472 5
E 80 92 5
E 80 612 1
E 80 613 1
E 81 614 11
E 81 621 1
E 81 623 1
E 82 361 3
E 82 369 1
E 82 374 1
E 82 380 6
E 83 380 5
E 83 385 1
E 83 389 1
E 83 390 1
E 84 369 6
E 84 380 1
E 84 385 5
E 85 374 6
E 85 380 1
E 85 389 5
E 86 111 5
E 86 427 1
E 86 432 1
E 86 433 2
E 87 88 1
E 87 360 52
E 87 439 3
E 88 442 3
E 88 449 2
E 89 102 52
E 89 429 5
E 89 436 1
E 89 439 6
E 90 435 5
E 90 436 2
E 90 447 6
E 91 601 1
E 91 602 1
E 91 610 11
E 92 94 44
E 92 609 1
E 92 611 1
E 93 95 1
E 93 104 5
E 93 572 1
E 93 600 44
E 94 580 1
E 94 581 1
E 95 97 1
E 95 106 5
E 95 571 1
E 96 98 1
E 96 571 11
E 96 580 1
E 96 581 1
E 97 108 5
E 97 570 1
E 98 570 11
E 98 579 1
E 99 321 1
E 99 322 1
E 99 327 1
E 99 333 5
E 100 333 6
E 100 341 1
E 100 347 1
E 100 356 3
E 101 322 5
E 101 333 1
E 101 341 6
E 102 327 5
E 102 333 1
E 102 347 6
E 103 114 44
E 103 128 5
E 103 557 1
E 103 560 1
E 104 106 1
E 104 569 1
E 104 598 44
E 105 107 1
E 105 557 1
E 105 560 1
E 105 568 11
E 106 108 1
E 106 568 1
E 107 556 1
E 107 567 11
E 108 567 1
E 109 110 1
E 109 121 1
E 109 289 52
E 109 397 3
E 110 122 1
E 110 396 2
E 110 400 3
E 111 417 1
E 111 418 1
E 111 422 2
E 112 119 52
E 112 397 6
E 112 409 1
E 112 415 5
E 113 403 6
E 113 409 2
E 113 420 5
E 114 126 5
E 114 588 1
E 114 589 1
E 115 590 11
E 115 597 1
E 115 599 1
E 116 286 3
E 116 292 1
E 116 296 1
E 116 300 6
E 117 300 5
E 117 304 1
E 117 307 1
E 117 308 1
E 118 292 6
E 118 300 1
E 118 304 5
E 119 296 6
E 119 300 1
E 119 307 5
E 120 145 5
E 120 364 1
E 120 371 1
E 120 373 2
E 121 122 1
E 121 285 52
E 121 384 3
E 122 386 3
E 122 394 2
E 123 136 52
E 123 368 5
E 123 379 1
E 123 384 6
E 124 375 5
E 124 379 2
E 124 391 6
E 125 577 1
E 125 578 1
E 125 586 11
E 126 128 44
E 126 585 1
E 126 587 1
E 127 129 1
E 127 138 5
E 127 539 1
E 127 576 44
E 128 553 1
E 128 554 1
E 129 131 1
E 129 140 5
E 129 537 1
E 130 132 1
E 130 537 11
E 130 553 1
E 130 554 1
E 131 142 5
E 131 535 1
E 132 535 11
E 132 552 1
E 133 250 1
E 133 251 1
E 133 258 1
E 133 267 5
E 134 267 6
E 134 272 1
E 134 277 1
E 134 282 3
E 135 251 5
E 135 267 1
E 135 272 6
E 136 258 5
E 136 267 1
E 136 277 6
E 137 148 44
E 137 162 5
E 137 512 1
E 137 516 1
E 138 140 1
E 138 532 1
E 138 574 44
E 139 141 1
E 139 512 1
E 139 516 1
E 139 531 11
E 140 142 1
E 140 531 1
E 141 511 1
E 141 530 11
E 142 530 1
E 143 144 1
E 143 155 1
E 143 223 52
E 143 320 3
E 144 156 1
E 144 319 2
E 144 324 3
E 145 343 1
E 145 344 1
E 145 355 2
E 146 153 52
E 146 320 6
E 146 335 1
E 146 340 5
E 147 329 6
E 147 335 2
E 147 351 5
E 148 160 5
E 148 564 1
E 148 565 1
E 149 566 11
E 149 573 1
E 149 575 1
E 150 222 3
E 150 224 1
E 150 227 1
E 150 234 6
E 151 234 5
E 151 236 1
E 151 240 1
E 151 241 1
E 152 224 6
E 152 234 1
E 152 236 5
E 153 227 6
E 153 234 1
E 153 240 5
E 154 179 5
E 154 288 1
E 154 294 1
E 154 295 2
E 155 156 1
E 155 221 52
E 155 303 3
E 156 305 3
E 156 316 2
E 157 170 52
E 157 291 5
E 157 299 1
E 157 303 6
E 158 297 5
E 158 299 2
E 158 310 6
E 159 549 1
E 159 550 1
E 159 562 11
E 160 162 44
E 160 561 1
E 160 563 1
E 161 163 1
E 161 172 5
E 161 497 1
E 161 548 44
E 162 508 1
E 162 509 1
E 163 165 1
E 163 174 5
E 163 495 1
E 164 166 1
E 164 495 11
E 164 508 1
E 164 509 1
E 165 176 5
E 165 493 1
E 166 493 11
E 166 507 1
E 167 214 1
E 167 215 5
E 168 215 6
E 168 216 1
E 168 217 1
E 168 219 3
E 169 215 1
E 169 216 6
E 170 214 5
E 170 215 1
E 170 217 6
E 171 182 44
E 171 195 5
E 171 465 1
E 171 470 1
E 172 174 1
E 172 490 1
E 172 542 44
E 173 175 1
E 173 465 1
E 173 470 1
E 173 489 11
E 174 176 1
E 174 489 1
E 175 376 61
E 175 464 1
E 175 479 6
E 176 488 1
E 177 178 1
E 177 189 1
E 177 249 3
E 178 190 1
E 178 248 2
E 178 254 3
E 179 273 1
E 179 274 1
E 179 281 2
E 180 249 6
E 180 269 1
E 180 271 5
E 181 186 3
E 181 261 6
E 181 269 2
E 181 279 5
E 182 193 5
E 182 526 1
E 182 527 1
E 183 529 11
E 183 540 1
E 183 543 1
E 184 263 3
E 184 266 1
E 184 270 1
E 184 276 6
E 185 276 5
E 185 287 1
E 185 383 46
E 186 266 6
E 186 276 1
E 186 287 5
E 187 270 6
E 187 276 1
E 187 377 45
E 188 225 1
E 188 226 2
E 189 190 1
E 190 238 3
E 190 246 2
E 191 202 3
E 191 228 5
E 191 232 2
E 191 242 6
E 192 505 1
E 192 519 11
E 193 195 44
E 193 517 1
E 193 521 1
E 194 196 1
E 194 431 11
E 194 444 1
E 194 504 44
E 195 460 1
E 195 461 1
E 196 198 1
E 196 413 20
E 196 441 1
E 197 199 1
E 197 441 11
E 197 460 1
E 197 461 1
E 198 328 61
E 198 411 20
E 198 438 1
E 199 353 61
E 199 438 11
E 199 459 1
E 200 230 1
E 200 231 1
E 200 235 1
E 200 237 5
E 201 237 6
E 201 245 1
E 201 252 1
E 201 253 1
E 202 231 5
E 202 237 1
E 202 245 6
E 203 235 5
E 203 237 1
E 203 252 6
E 203 331 45
E 204 205 2
E 204 209 1
E 204 278 1
E 204 298 9
E 205 210 1
E 205 293 2
E 205 301 9
E 206 298 6
E 206 302 1
E 206 309 2
E 206 314 5
E 207 278 9
E 207 298 1
E 207 302 6
E 208 293 9
E 208 301 2
E 208 312 6
E 208 431 63
E 209 210 2
E 209 264 9
E 209 275 1
E 210 268 9
E 210 290 2
E 211 264 1
E 211 275 9
E 212 268 2
E 212 284 7
E 213 407 44
E 213 504 23
E 214 291 52
E 216 218 3
E 217 221 3
E 217 303 52
E 218 219 1
E 218 220 1
E 219 221 1
E 219 222 1
E 220 222 1
E 220 224 3
E 221 223 1
E 222 223 1
E 223 227 3
E 225 228 2
E 225 232 5
E 226 228 1
E 226 229 3
E 227 320 52
E 228 231 3
E 229 230 1
E 229 231 1
E 230 233 1
E 232 238 6
E 233 235 1
E 233 313 45
E 235 315 45
E 236 239 1
E 238 242 2
E 239 241 1
E 239 247 5
E 240 243 1
E 240 340 52
E 241 243 1
E 241 250 5
E 242 244 1
E 242 245 3
E 243 255 5
E 243 344 52
E 244 246 2
E 244 253 4
E 245 257 3
E 246 248 1
E 246 257 3
E 247 250 1
E 247 251 1
E 248 260 3
E 248 261 3
E 249 254 1
E 250 255 1
E 252 256 1
E 252 337 45
E 253 256 1
E 253 259 2
E 254 261 2
E 254 269 6
E 255 258 1
E 255 364 52
E 256 262 2
E 256 339 45
E 257 259 1
E 257 260 1
E 258 368 52
E 259 262 1
E 259 263 1
E 260 263 1
E 260 266 3
E 261 266 3
E 262 265 1
E 262 346 45
E 263 265 1
E 264 268 2
E 265 270 3
E 265 350 45
E 269 273 5
E 270 363 45
E 271 273 1
E 271 274 1
E 272 280 3
E 273 279 2
E 274 288 5
E 275 278 1
E 277 285 3
E 277 384 52
E 279 281 1
E 279 287 3
E 280 282 1
E 280 283 1
E 281 295 5
E 282 285 1
E 282 286 1
E 283 286 1
E 283 292 3
E 284 290 2
E 284 404 61
E 285 289 1
E 286 289 1
E 288 291 1
E 289 296 3
E 290 293 1
E 290 408 61
E 291 294 1
E 293 411 61
E 294 297 2
E 294 299 5
E 295 297 1
E 296 397 52
E 298 301 2
E 299 305 6
E 301 309 6
E 302 313 5
E 303 305 1
E 304 306 1
E 305 310 2
E 306 308 1
E 306 317 5
E 307 311 1
E 307 415 52
E 308 311 1
E 308 321 5
E 309 312 2
E 309 323 5
E 310 316 3
E 311 325 5
E 311 418 52
E 312 328 5
E 313 314 1
E 313 315 1
E 314 318 1
E 314 323 2
E 315 318 1
E 315 331 5
E 316 319 1
E 317 321 1
E 317 322 1
E 318 326 2
E 318 332 5
E 319 329 3
E 320 324 1
E 321 325 1
E 323 326 1
E 323 328 2
E 324 329 2
E 324 335 6
E 325 327 1
E 325 427 52
E 326 330 2
E 326 334 5
E 327 429 52
E 328 330 1
E 330 336 5
E 330 438 61
E 331 332 1
E 331 337 6
E 332 334 2
E 332 338 6
E 334 336 2
E 334 345 6
E 335 343 5
E 336 353 6
E 337 338 1
E 337 339 1
E 338 342 1
E 338 345 2
E 339 342 1
E 339 346 2
E 340 343 1
E 340 344 1
E 341 352 3
E 342 348 2
E 342 349 2
E 343 351 2
E 344 364 5
E 345 348 1
E 345 353 2
E 346 349 1
E 346 350 1
E 347 360 3
E 347 439 52
E 348 358 2
E 348 359 2
E 349 354 1
E 349 359 2
E 350 354 1
E 350 363 3
E 351 355 1
E 352 356 1
E 352 357 1
E 353 358 1
E 354 362 2
E 354 367 3
E 355 373 5
E 356 360 1
E 356 361 1
E 357 361 1
E 357 369 3
E 358 366 2
E 358 459 61
E 359 362 1
E 359 366 2
E 360 365 1
E 361 365 1
E 362 370 2
E 362 372 3
E 363 367 1
E 363 377 6
E 364 368 1
E 365 374 3
E 366 370 1
E 367 372 2
E 367 378 6
E 368 371 1
E 370 376 3
E 370 464 63
E 371 375 2
E 371 379 5
E 372 376 2
E 372 381 6
E 373 375 1
E 374 452 52
E 376 382 6
E 377 378 1
E 377 383 5
E 378 381 2
E 379 386 6
E 381 382 2
E 381 388 5
E 382 393 5
E 382 479 61
E 383 388 3
E 384 386 1
E 385 387 1
E 386 391 2
E 387 390 1
E 387 395 5
E 388 393 2
E 389 392 1
E 389 466 52
E 390 392 1
E 390 398 5
E 391 394 3
E 392 401 5
E 392 469 52
E 393 488 61
E 394 396 1
E 395 398 1
E 395 399 1
E 396 403 3
E 397 400 1
E 398 401 1
E 400 403 2
E 400 409 6
E 401 402 1
E 401 480 52
E 402 482 52
E 404 405 1
E 404 408 2
E 405 407 1
E 405 410 2
E 407 412 2
E 408 410 1
E 408 411 1
E 409 417 5
E 410 412 1
E 410 413 1
E 411 413 1
E 412 414 1
E 413 414 1
E 414 431 9
E 415 417 1
E 415 418 1
E 416 421 3
E 417 420 2
E 418 427 5
E 419 425 3
E 419 494 52
E 420 422 1
E 421 423 1
E 421 424 1
E 422 433 5
E 423 425 1
E 423 426 1
E 424 426 1
E 424 430 3
E 425 428 1
E 426 428 1
E 427 429 1
E 428 434 3
E 429 432 1
E 432 435 2
E 432 436 5
E 433 435 1
E 434 502 52
E 436 442 6
E 438 441 1
E 439 442 1
E 440 443 1
E 441 444 1
E 442 447 2
E 443 446 1
E 443 450 5
E 444 460 11
E 444 505 44
E 445 448 1
E 445 513 52
E 446 448 1
E 446 453 5
E 447 449 3
E 448 456 5
E 448 515 52
E 449 451 1
E 450 453 1
E 450 454 1
E 451 458 3
E 452 455 1
E 453 456 1
E 455 458 2
E 455 463 6
E 456 457 1
E 456 522 52
E 457 523 52
E 459 461 1
E 459 464 5
E 460 517 44
E 461 465 5
E 463 468 5
E 464 465 1
E 466 468 1
E 466 469 1
E 467 473 3
E 468 472 2
E 469 480 5
E 470 490 11
E 470 527 44
E 471 477 3
E 471 536 52
E 472 474 1
E 473 475 1
E 473 476 1
E 474 485 5
E 475 477 1
E 475 478 1
E 476 478 1
E 476 483 3
E 477 481 1
E 478 481 1
E 479 488 5
E 479 534 46
E 480 482 1
E 481 486 3
E 482 484 1
E 484 487 2
E 484 491 5
E 485 487 1
E 486 546 52
E 488 489 1
E 489 490 1
E 490 540 44
E 491 496 6
E 493 495 1
E 494 496 1
E 495 497 1
E 496 499 2
E 497 508 11
E 497 550 44
E 498 558 52
E 499 500 3
E 500 501 1
E 501 506 3
E 502 503 1
E 503 506 2
E 503 510 6
E 504 505 1
E 505 517 11
E 507 509 1
E 507 511 5
E 508 561 44
E 509 512 5
E 510 514 5
E 511 512 1
E 513 514 1
E 513 515 1
E 514 518 2
E 515 522 5
E 516 532 11
E 516 565 44
E 517 519 1
E 518 520 1
E 519 521 1
E 520 525 5
E 521 526 5
E 522 523 1
E 523 524 1
E 524 528 2
E 524 533 5
E 525 528 1
E 526 529 1
E 527 529 1
E 527 534 6
E 530 531 1
E 531 532 1
E 532 573 44
E 533 538 6
E 534 540 5
E 535 537 1
E 536 538 1
E 537 539 1
E 538 541 2
E 539 553 11
E 539 578 44
E 540 542 1
E 541 544 3
E 542 543 1
E 542 548 5
E 543 549 5
E 544 545 1
E 545 551 3
E 546 547 1
E 547 551 2
E 547 555 6
E 548 549 1
E 548 550 1
E 550 561 11
E 552 554 1
E 552 556 5
E 553 585 44
E 554 557 5
E 555 559 5
E 556 557 1
E 558 559 1
E 560 569 11
E 560 589 44
E 561 562 1
E 562 563 1
E 563 564 5
E 564 566 1
E 565 566 1
E 565 573 11
E 567 568 1
E 568 569 1
E 569 597 44
E 570 571 1
E 571 572 1
E 572 580 11
E 572 602 44
E 573 574 1
E 574 575 1
E 574 576 5
E 575 577 5
E 576 577 1
E 576 578 1
E 578 585 11
E 579 581 1
E 579 582 5
E 580 609 44
E 581 583 5
E 582 583 1
E 584 593 11
E 584 613 44
E 585 586 1
E 586 587 1
E 587 588 5
E 588 590 1
E 589 590 1
E 589 597 11
E 591 592 1
E 592 593 1
E 593 621 44
E 594 595 1
E 595 596 1
E 596 604 11
E 596 626 44
E 597 598 1
E 598 599 1
E 598 600 5
E 599 601 5
E 600 601 1
E 600 602 1
E 602 609 11
E 603 605 1
E 603 606 5
E 604 633 44
E 605 607 5
E 606 607 1
E 608 617 11
E 608 637 44
E 609 610 1
E 610 611 1
E 611 612 5
E 612 614 1
E 613 614 1
E 613 621 11
E 615 616 1
E 616 617 1
E 617 642 44
E 618 619 1
E 619 620 1
E 620 628 11
E 620 647 44
E 621 622 1
E 622 623 1
E 622 624 5
E 623 625 5
E 624 625 1
E 624 626 1
E 626 633 11
E 627 629 1
E 627 630 5
E 628 648 44
E 629 631 5
E 630 631 1
E 632 641 11
E 632 652 44
E 633 634 1
E 634 635 1
E 635 636 5
E 636 638 1
E 637 638 1
E 637 642 11
E 639 640 1
E 640 641 1
E 641 654 44
E 642 643 1
E 643 644 1
E 643 645 5
E 644 646 5
E 645 646 1
E 645 647 1
E 647 648 11
E 648 649 1
E 649 650 1
E 650 651 5
E 651 653 1
E 652 653 1
E 652 654 11
E 1 655 100000
E 2 655 100000
E 3 656 100000
E 4 656 100000
E 5 657 100000
E 6 657 100000
E 7 658 100000
E 8 658 100000
E 9 658 100000
E 10 658 100000
E 11 658 100000
E 12 659 100000
E 13 659 100000
E 14 660 100000
E 15 660 100000
E 16 660 100000
E 17 660 100000
E 18 661 100000
E 19 661 100000
E 20 661 100000
E 21 661 100000
E 22 661 100000
E 23 662 100000
E 24 662 100000
E 25 663 100000
E 26 663 100000
E 27 664 100000
E 28 664 100000
E 29 665 100000
E 30 665 100000
E 31 666 100000
E 32 666 100000
E 33 666 100000
E 34 666 100000
E 35 667 100000
E 36 667 100000
E 37 668 100000
E 38 668 100000
E 39 669 100000
E 40 669 100000
E 41 670 100000
E 42 670 100000
E 43 670 100000
E 44 670 100000
E 45 670 100000
E 46 671 100000
E 47 671 100000
E 48 672 100000
E 49 672 100000
E 50 672 100000
E 51 672 100000
E 52 673 100000
E 53 673 100000
E 54 673 100000
E 55 673 100000
E 56 673 100000
E 57 674 100000
E 58 674 100000
E 59 675 100000
E 60 675 100000
E 61 676 100000
E 62 676 100000
E 63 677 100000
E 64 677 100000
E 65 678 100000
E 66 678 100000
E 67 678 100000
E 68 678 100000
E 69 679 100000
E 70 679 100000
E 71 680 100000
E 72 680 100000
E 73 681 100000
E 74 681 100000
E 75 682 100000
E 76 682 100000
E 77 682 100000
E 78 682 100000
E 79 682 100000
E 80 683 100000
E 81 683 100000
E 82 684 100000
E 83 684 100000
E 84 684 100000
E 85 684 100000
E 86 685 100000
E 87 685 100000
E 88 685 100000
E 89 685 100000
E 90 685 100000
E 91 686 100000
E 92 686 100000
E 93 687 100000
E 94 687 100000
E 95 688 100000
E 96 688 100000
E 97 689 100000
E 98 689 100000
E 99 690 100000
E 100 690 100000
E 101 690 100000
E 102 690 100000
E 103 691 100000
E 104 691 100000
E 105 692 100000
E 106 692 100000
E 107 693 100000
E 108 693 100000
E 109 694 100000
E 110 694 100000
E 111 694 100000
E 112 694 100000
E 113 694 100000
E 114 695 100000
E 115 695 100000
E 116 696 100000
E 117 696 100000
E 118 696 100000
E 119 696 100000
E 120 697 100000
E 121 697 100000
E 122 697 100000
E 123 697 100000
E 124 697 100000
E 125 698 100000
E 126 698 100000
E 127 699 100000
E 128 699 100000
E 129 700 100000
E 130 700 100000
E 131 701 100000
E 132 701 100000
E 133 702 100000
E 134 702 100000
E 135 702 100000
E 136 702 100000
E 137 703 100000
E 138 703 100000
E 139 704 100000
E 140 704 100000
E 141 705 100000
E 142 705 100000
E 143 706 100000
E 144 706 100000
E 145 706 100000
E 146 706 100000
E 147 706 100000
E 148 707 100000
E 149 707 100000
E 150 708 100000
E 151 708 100000
E 152 708 100000
E 153 708 100000
E 154 709 100000
E 155 709 100000
E 156 709 100000
E 157 709 100000
E 158 709 100000
E 159 710 100000
E 160 710 100000
E 161 711 100000
E 162 711 100000
E 163 712 100000
E 164 712 100000
E 165 713 100000
E 166 713 100000
E 167 714 100000
E 168 714 100000
E 169 714 100000
E 170 714 100000
E 171 715 100000
E 172 715 100000
E 173 716 100000
E 174 716 100000
E 175 717 100000
E 176 717 100000
E 177 718 100000
E 178 718 100000
E 179 718 100000
E 180 718 100000
E 181 718 100000
E 182 719 100000
E 183 719 100000
E 184 720 100000
E 185 720 100000
E 186 720 100000
E 187 720 100000
E 188 721 100000
E 189 721 100000
E 190 721 100000
E 191 721 100000
E 192 722 100000
E 193 722 100000
E 194 723 100000
E 195 723 100000
E 196 724 100000
E 197 724 100000
E 198 725 100000
E 199 725 100000
E 200 726 100000
E 201 726 100000
E 202 726 100000
E 203 726 100000
E 204 727 100000
E 205 727 100000
E 206 727 100000
E 207 727 100000
E 208 727 100000
E 209 728 100000
E 210 728 100000
E 211 728 100000
E 212 728 100000
E 213 729 100000
END

SECTION Terminals
Terminals 75
T 655
T 656
T 657
T 658
T 659
T 660
T 661
T 662
T 663
T 664
T 665
T 666
T 667
T 668
T 669
T 670
T 671
T 672
T 673
T 674
T 675
T 676
T 677
T 678
T 679
T 680
T 681
T 682
T 683
T 684
T 685
T 686
T 687
T 688
T 689
T 690
T 691
T 692
T 693
T 694
T 695
T 696
T 697
T 698
T 699
T 700
T 701
T 702
T 703
T 704
T 705
T 706
T 707
T 708
T 709
T 710
T 711
T 712
T 713
T 714
T 715
T 716
T 717
T 718
T 719
T 720
T 721
T 722
T 723
T 724
T 725
T 726
T 727
T 728
T 729
END

EOF
